Minimize
 Obj: +82 x0 +73 x1 +45 x2 +51 x3 
Subject to
 c0: +1 x0 +1 x2 >= +1
 c1: +1 x1 +1 x2 >= +1
 c3: +1 x0 +1 x3 >= +1
 c4: +1 x0 +1 x1 >= +1
Bounds
 0 <= x0 <= 1
 0 <= x1 <= 1
 0 <= x2 <= 1
 0 <= x3 <= 1
Binaries
 x0 x1 x2 x3
End
